n=40;
m=60;
ciudades=[|20, 4
|22, 3
|33, 34
|36, 33
|33, 39
|13, 4
|39, 26
|0, 37
|3, 4
|21, 33
|12, 2
|20, 14
|4, 8
|20, 31
|6, 9
|2, 15
|25, 0
|30, 3
|29, 22
|30, 23
|23, 38
|9, 23
|28, 25
|4, 35
|7, 36
|0, 16
|7, 4
|11, 24
|40, 29
|39, 17
|10, 35
|40, 33
|14, 15
|8, 30
|3, 19
|36, 5
|3, 17
|35, 29
|14, 18
|10, 40
|20, 25
|40, 0
|33, 1
|35, 32
|1, 38
|8, 38
|6, 38
|22, 32
|2, 4
|0, 15
|32, 27
|24, 32
|18, 23
|5, 20
|40, 26
|25, 36
|9, 31
|29, 24
|23, 35
|14, 34|];